Maximize

7 x_0 + 9 x_1 + 5 x_2


Subject To

a0: r_0_0 + r_0_1 + r_0_2 <= 10
a1: r_1_0 + r_1_1 + r_1_2 <= 5
a2: r_2_0 + r_2_1 + r_2_2 <= 8
a3: r_3_0 + r_3_1 + r_3_2 <= 2
a4: r_4_0 + r_4_1 + r_4_2 <= 5
b0: 1 r_0_0 + 0 r_1_0 + 0 r_2_0 + 1 r_3_0 + 0 r_4_0 - 2 x_0 = 0
b1: 1 r_0_1 + 0 r_1_1 + 0 r_2_1 + 1 r_3_1 + 0 r_4_1 - 8 x_1 = 0
b2: 1 r_0_2 + 0 r_1_2 + 0 r_2_2 + 1 r_3_2 + 0 r_4_2 - 2 x_2 = 0
b3: 0 r_0_0 + 1 r_1_0 + 0 r_2_0 + 0 r_3_0 + 0 r_4_0 - 0 x_0 = 0
b4: 0 r_0_1 + 1 r_1_1 + 0 r_2_1 + 0 r_3_1 + 0 r_4_1 - 4 x_1 = 0
b5: 0 r_0_2 + 1 r_1_2 + 0 r_2_2 + 0 r_3_2 + 0 r_4_2 - 0 x_2 = 0
b6: 0 r_0_0 + 0 r_1_0 + 1 r_2_0 + 0 r_3_0 + 0 r_4_0 - 5 x_0 = 0
b7: 0 r_0_1 + 0 r_1_1 + 1 r_2_1 + 0 r_3_1 + 0 r_4_1 - 3 x_1 = 0
b8: 0 r_0_2 + 0 r_1_2 + 1 r_2_2 + 0 r_3_2 + 0 r_4_2 - 0 x_2 = 0
b9: 0 r_0_0 + 0 r_1_0 + 0 r_2_0 + 0 r_3_0 + 1 r_4_0 - 0 x_0 = 0
b10: 0 r_0_1 + 0 r_1_1 + 0 r_2_1 + 0 r_3_1 + 1 r_4_1 - 0 x_1 = 0
b11: 0 r_0_2 + 0 r_1_2 + 0 r_2_2 + 0 r_3_2 + 1 r_4_2 - 7 x_2 = 0




Binary

x_0 x_1 x_2


General

 r_0_0 r_0_1 r_0_2 r_1_0 r_1_1 r_1_2 r_2_0 r_2_1 r_2_2 r_3_0 r_3_1 r_3_2 r_4_0 r_4_1 r_4_2



End
